c FILE: i160-033

c SOURCE: From steinlib

c DESCRIPTION: Steinlib instance with 160 nodes and 320 edges.

p edge 160 320
e 1 44
e 1 60
e 1 62
e 1 64
e 1 76
e 1 84
e 1 85
e 1 95
e 1 120
e 1 127
e 1 149
e 1 152
e 2 18
e 2 43
e 2 47
e 2 52
e 2 54
e 2 60
e 2 64
e 2 78
e 2 137
e 2 159
e 3 11
e 3 30
e 3 34
e 3 39
e 3 54
e 4 102
e 4 143
e 5 89
e 5 91
e 5 110
e 5 120
e 5 126
e 6 12
e 6 35
e 6 43
e 6 157
e 7 21
e 7 33
e 7 67
e 7 76
e 7 116
e 8 70
e 9 26
e 9 71
e 9 127
e 10 32
e 11 25
e 11 50
e 11 128
e 12 50
e 12 51
e 12 69
e 12 122
e 12 133
e 13 143
e 14 119
e 14 140
e 14 145
e 15 18
e 15 114
e 16 23
e 16 55
e 17 27
e 17 40
e 17 102
e 17 136
e 18 37
e 18 53
e 18 58
e 18 131
e 19 31
e 19 67
e 19 89
e 19 94
e 19 101
e 19 136
e 20 26
e 20 46
e 20 114
e 20 143
e 20 145
e 21 35
e 21 63
e 21 82
e 22 57
e 22 72
e 22 152
e 22 154
e 22 159
e 23 90
e 23 118
e 24 104
e 24 139
e 25 47
e 25 109
e 26 58
e 27 34
e 27 58
e 27 76
e 27 116
e 28 58
e 28 79
e 28 96
e 28 147
e 29 104
e 29 112
e 29 156
e 30 69
e 31 135
e 32 51
e 32 134
e 33 63
e 33 87
e 33 133
e 34 52
e 34 62
e 34 70
e 34 115
e 34 125
e 34 144
e 35 36
e 35 62
e 35 91
e 35 115
e 35 121
e 35 125
e 35 147
e 36 65
e 36 82
e 36 87
e 36 128
e 37 44
e 37 54
e 37 55
e 37 113
e 37 156
e 38 104
e 38 148
e 39 103
e 39 131
e 40 60
e 40 63
e 40 135
e 41 44
e 41 53
e 41 101
e 42 51
e 42 95
e 43 93
e 43 128
e 43 156
e 44 57
e 44 67
e 44 103
e 44 117
e 44 121
e 45 47
e 45 60
e 45 68
e 45 102
e 45 104
e 45 124
e 46 56
e 46 103
e 47 61
e 47 123
e 47 140
e 47 150
e 48 159
e 49 115
e 50 125
e 51 104
e 51 146
e 52 99
e 53 100
e 55 83
e 57 116
e 57 131
e 58 100
e 58 102
e 58 120
e 58 148
e 59 70
e 59 84
e 59 147
e 60 63
e 60 91
e 60 109
e 60 115
e 61 94
e 61 100
e 61 131
e 61 153
e 62 111
e 62 123
e 62 138
e 63 75
e 63 86
e 63 116
e 64 98
e 65 97
e 65 151
e 65 153
e 66 100
e 66 150
e 67 107
e 67 159
e 68 105
e 68 131
e 68 141
e 70 71
e 70 99
e 70 109
e 71 75
e 71 127
e 72 73
e 72 77
e 73 96
e 73 99
e 73 106
e 74 93
e 74 96
e 74 113
e 74 123
e 74 127
e 74 139
e 75 91
e 75 104
e 76 100
e 77 133
e 78 123
e 78 124
e 79 88
e 80 111
e 80 123
e 81 107
e 81 108
e 81 119
e 83 112
e 83 140
e 84 99
e 85 92
e 85 102
e 85 132
e 85 159
e 86 160
e 87 109
e 87 122
e 88 97
e 88 101
e 88 116
e 92 98
e 92 118
e 92 131
e 92 140
e 94 147
e 94 156
e 94 158
e 95 96
e 96 104
e 96 129
e 96 148
e 97 124
e 97 130
e 98 144
e 99 104
e 99 138
e 100 133
e 100 134
e 100 150
e 100 152
e 102 106
e 102 132
e 102 142
e 103 122
e 103 139
e 103 149
e 104 119
e 105 116
e 106 128
e 107 133
e 108 137
e 110 136
e 111 131
e 112 154
e 113 117
e 113 124
e 114 144
e 115 128
e 115 146
e 116 126
e 116 127
e 117 138
e 117 141
e 118 147
e 120 155
e 121 137
e 122 137
e 122 160
e 123 125
e 124 136
e 124 140
e 125 126
e 128 157
e 130 158
e 132 158
e 133 135
e 136 148
e 136 154
e 137 144
e 137 158
e 139 152
e 142 145
e 144 146
e 144 157
e 145 156
e 148 158
e 158 160
